proyfinal/src/viki/013/andrea/andrea-localstore/experimentInOfficeAgust.take6/worker_9/07bf25e0-642b-4abb-a665-1c3611286f0a.als.cnf.out
Reading from standard input... Use '--help' for help.
============================[ Problem Statistics ]=============================
|                                                                             |
|  Number of variables:         87638                                         |
|  Number of clauses:          161767                                         |
|  Parse time:                   0.04 s                                       |
|                                                                             |
============================[ Search Statistics ]==============================
| Conflicts |          ORIGINAL         |          LEARNT          | Progress |
|           |    Vars  Clauses Literals |    Limit  Clauses Lit/Cl |          |
===============================================================================
|       100 |   62158   104437   260922 |    38293      100     28 | 29.074 % |
|       250 |   62112   104270   260482 |    42122      232    116 | 29.127 % |
|       475 |   62112   104270   260482 |    46335      457     82 | 29.127 % |
|       812 |   62066   104095   260017 |    50968      763     94 | 29.179 % |
|      1318 |   62048   104021   259846 |    56065     1228    109 | 29.200 % |
|      2077 |   62028   103943   259656 |    61672     1861    106 | 29.223 % |
|      3216 |   62028   103943   259656 |    67839     3000     89 | 29.223 % |
===============================================================================
restarts              : 20
conflicts             : 3750           (6982 /sec)
decisions             : 15561          (0.00 % random) (28974 /sec)
propagations          : 5944748        (11068769 /sec)
conflict literals     : 298357         (54.57 % deleted)
Memory used           : 22.02 MB
CPU time              : 0.537074 s

UNSATISFIABLE
